logs/drand/feas/drand-07-110-0.lp
\ LP format - for model browsing. Use MPS format to capture full model detail.
Minimize
  p0 + p1 + p2 + p3 + p4 + p5 + p6
Subject To
 R0: x0,1_12 + x0,2_12 + x0,3_12 + x0,4_12 + x0,5_12 + x0,6_12 + x1,2_12
   + x1,3_12 + x1,4_12 + x1,5_12 + x1,6_12 + x2,3_12 + x2,4_12 + x2,5_12
   + x2,6_12 + x3,4_12 + x3,5_12 + x3,6_12 + x4,5_12 + x4,6_12 + x5,6_12
   = 1
 R1: x0,1_47 + x0,2_47 + x0,3_47 + x0,4_47 + x0,5_47 + x0,6_47 + x1,2_47
   + x1,3_47 + x1,4_47 + x1,5_47 + x1,6_47 + x2,3_47 + x2,4_47 + x2,5_47
   + x2,6_47 + x3,4_47 + x3,5_47 + x3,6_47 + x4,5_47 + x4,6_47 + x5,6_47
   = 1
 R2: x0,1_48 + x0,2_48 + x0,3_48 + x0,4_48 + x0,5_48 + x0,6_48 + x1,2_48
   + x1,3_48 + x1,4_48 + x1,5_48 + x1,6_48 + x2,3_48 + x2,4_48 + x2,5_48
   + x2,6_48 + x3,4_48 + x3,5_48 + x3,6_48 + x4,5_48 + x4,6_48 + x5,6_48
   = 1
 R3: x0,1_52 + x0,2_52 + x0,3_52 + x0,4_52 + x0,5_52 + x0,6_52 + x1,2_52
   + x1,3_52 + x1,4_52 + x1,5_52 + x1,6_52 + x2,3_52 + x2,4_52 + x2,5_52
   + x2,6_52 + x3,4_52 + x3,5_52 + x3,6_52 + x4,5_52 + x4,6_52 + x5,6_52
   = 1
 R4: x0,1_56 + x0,2_56 + x0,3_56 + x0,4_56 + x0,5_56 + x0,6_56 + x1,2_56
   + x1,3_56 + x1,4_56 + x1,5_56 + x1,6_56 + x2,3_56 + x2,4_56 + x2,5_56
   + x2,6_56 + x3,4_56 + x3,5_56 + x3,6_56 + x4,5_56 + x4,6_56 + x5,6_56
   = 1
 R5: x0,1_70 + x0,2_70 + x0,3_70 + x0,4_70 + x0,5_70 + x0,6_70 + x1,2_70
   + x1,3_70 + x1,4_70 + x1,5_70 + x1,6_70 + x2,3_70 + x2,4_70 + x2,5_70
   + x2,6_70 + x3,4_70 + x3,5_70 + x3,6_70 + x4,5_70 + x4,6_70 + x5,6_70
   = 1
 R6: x0,1_103 + x0,2_103 + x0,3_103 + x0,4_103 + x0,5_103 + x0,6_103
   + x1,2_103 + x1,3_103 + x1,4_103 + x1,5_103 + x1,6_103 + x2,3_103
   + x2,4_103 + x2,5_103 + x2,6_103 + x3,4_103 + x3,5_103 + x3,6_103
   + x4,5_103 + x4,6_103 + x5,6_103 = 1
 R7: x0,1_12 + x0,1_47 + x0,1_48 + x0,1_52 + x0,1_56 + x0,1_70 + x0,1_103
   <= 1
 R8: x0,2_12 + x0,2_47 + x0,2_48 + x0,2_52 + x0,2_56 + x0,2_70 + x0,2_103
   <= 1
 R9: x0,3_12 + x0,3_47 + x0,3_48 + x0,3_52 + x0,3_56 + x0,3_70 + x0,3_103
   <= 1
 R10: x0,4_12 + x0,4_47 + x0,4_48 + x0,4_52 + x0,4_56 + x0,4_70 + x0,4_103
   <= 1
 R11: x0,5_12 + x0,5_47 + x0,5_48 + x0,5_52 + x0,5_56 + x0,5_70 + x0,5_103
   <= 1
 R12: x0,6_12 + x0,6_47 + x0,6_48 + x0,6_52 + x0,6_56 + x0,6_70 + x0,6_103
   <= 1
 R13: x1,2_12 + x1,2_47 + x1,2_48 + x1,2_52 + x1,2_56 + x1,2_70 + x1,2_103
   <= 1
 R14: x1,3_12 + x1,3_47 + x1,3_48 + x1,3_52 + x1,3_56 + x1,3_70 + x1,3_103
   <= 1
 R15: x1,4_12 + x1,4_47 + x1,4_48 + x1,4_52 + x1,4_56 + x1,4_70 + x1,4_103
   <= 1
 R16: x1,5_12 + x1,5_47 + x1,5_48 + x1,5_52 + x1,5_56 + x1,5_70 + x1,5_103
   <= 1
 R17: x1,6_12 + x1,6_47 + x1,6_48 + x1,6_52 + x1,6_56 + x1,6_70 + x1,6_103
   <= 1
 R18: x2,3_12 + x2,3_47 + x2,3_48 + x2,3_52 + x2,3_56 + x2,3_70 + x2,3_103
   <= 1
 R19: x2,4_12 + x2,4_47 + x2,4_48 + x2,4_52 + x2,4_56 + x2,4_70 + x2,4_103
   <= 1
 R20: x2,5_12 + x2,5_47 + x2,5_48 + x2,5_52 + x2,5_56 + x2,5_70 + x2,5_103
   <= 1
 R21: x2,6_12 + x2,6_47 + x2,6_48 + x2,6_52 + x2,6_56 + x2,6_70 + x2,6_103
   <= 1
 R22: x3,4_12 + x3,4_47 + x3,4_48 + x3,4_52 + x3,4_56 + x3,4_70 + x3,4_103
   <= 1
 R23: x3,5_12 + x3,5_47 + x3,5_48 + x3,5_52 + x3,5_56 + x3,5_70 + x3,5_103
   <= 1
 R24: x3,6_12 + x3,6_47 + x3,6_48 + x3,6_52 + x3,6_56 + x3,6_70 + x3,6_103
   <= 1
 R25: x4,5_12 + x4,5_47 + x4,5_48 + x4,5_52 + x4,5_56 + x4,5_70 + x4,5_103
   <= 1
 R26: x4,6_12 + x4,6_47 + x4,6_48 + x4,6_52 + x4,6_56 + x4,6_70 + x4,6_103
   <= 1
 R27: x5,6_12 + x5,6_47 + x5,6_48 + x5,6_52 + x5,6_56 + x5,6_70 + x5,6_103
   <= 1
 R28: p0 - p1 <= -1
 R29: - 12 x0,1_12 - p0 + p1 >= 0
 R30: 388 x0,1_12 - p0 + p1 <= 400
 R31: - 47 x0,1_47 - p0 + p1 >= 0
 R32: 388 x0,1_47 - p0 + p1 <= 435
 R33: - 48 x0,1_48 - p0 + p1 >= 0
 R34: 388 x0,1_48 - p0 + p1 <= 436
 R35: - 52 x0,1_52 - p0 + p1 >= 0
 R36: 388 x0,1_52 - p0 + p1 <= 440
 R37: - 56 x0,1_56 - p0 + p1 >= 0
 R38: 388 x0,1_56 - p0 + p1 <= 444
 R39: - 70 x0,1_70 - p0 + p1 >= 0
 R40: 388 x0,1_70 - p0 + p1 <= 458
 R41: - 103 x0,1_103 - p0 + p1 >= 0
 R42: 388 x0,1_103 - p0 + p1 <= 491
 R43: p0 - p2 <= -1
 R44: - 12 x0,2_12 - p0 + p2 >= 0
 R45: 388 x0,2_12 - p0 + p2 <= 400
 R46: - 47 x0,2_47 - p0 + p2 >= 0
 R47: 388 x0,2_47 - p0 + p2 <= 435
 R48: - 48 x0,2_48 - p0 + p2 >= 0
 R49: 388 x0,2_48 - p0 + p2 <= 436
 R50: - 52 x0,2_52 - p0 + p2 >= 0
 R51: 388 x0,2_52 - p0 + p2 <= 440
 R52: - 56 x0,2_56 - p0 + p2 >= 0
 R53: 388 x0,2_56 - p0 + p2 <= 444
 R54: - 70 x0,2_70 - p0 + p2 >= 0
 R55: 388 x0,2_70 - p0 + p2 <= 458
 R56: - 103 x0,2_103 - p0 + p2 >= 0
 R57: 388 x0,2_103 - p0 + p2 <= 491
 R58: p0 - p3 <= -1
 R59: - 12 x0,3_12 - p0 + p3 >= 0
 R60: 388 x0,3_12 - p0 + p3 <= 400
 R61: - 47 x0,3_47 - p0 + p3 >= 0
 R62: 388 x0,3_47 - p0 + p3 <= 435
 R63: - 48 x0,3_48 - p0 + p3 >= 0
 R64: 388 x0,3_48 - p0 + p3 <= 436
 R65: - 52 x0,3_52 - p0 + p3 >= 0
 R66: 388 x0,3_52 - p0 + p3 <= 440
 R67: - 56 x0,3_56 - p0 + p3 >= 0
 R68: 388 x0,3_56 - p0 + p3 <= 444
 R69: - 70 x0,3_70 - p0 + p3 >= 0
 R70: 388 x0,3_70 - p0 + p3 <= 458
 R71: - 103 x0,3_103 - p0 + p3 >= 0
 R72: 388 x0,3_103 - p0 + p3 <= 491
 R73: p0 - p4 <= -1
 R74: - 12 x0,4_12 - p0 + p4 >= 0
 R75: 388 x0,4_12 - p0 + p4 <= 400
 R76: - 47 x0,4_47 - p0 + p4 >= 0
 R77: 388 x0,4_47 - p0 + p4 <= 435
 R78: - 48 x0,4_48 - p0 + p4 >= 0
 R79: 388 x0,4_48 - p0 + p4 <= 436
 R80: - 52 x0,4_52 - p0 + p4 >= 0
 R81: 388 x0,4_52 - p0 + p4 <= 440
 R82: - 56 x0,4_56 - p0 + p4 >= 0
 R83: 388 x0,4_56 - p0 + p4 <= 444
 R84: - 70 x0,4_70 - p0 + p4 >= 0
 R85: 388 x0,4_70 - p0 + p4 <= 458
 R86: - 103 x0,4_103 - p0 + p4 >= 0
 R87: 388 x0,4_103 - p0 + p4 <= 491
 R88: p0 - p5 <= -1
 R89: - 12 x0,5_12 - p0 + p5 >= 0
 R90: 388 x0,5_12 - p0 + p5 <= 400
 R91: - 47 x0,5_47 - p0 + p5 >= 0
 R92: 388 x0,5_47 - p0 + p5 <= 435
 R93: - 48 x0,5_48 - p0 + p5 >= 0
 R94: 388 x0,5_48 - p0 + p5 <= 436
 R95: - 52 x0,5_52 - p0 + p5 >= 0
 R96: 388 x0,5_52 - p0 + p5 <= 440
 R97: - 56 x0,5_56 - p0 + p5 >= 0
 R98: 388 x0,5_56 - p0 + p5 <= 444
 R99: - 70 x0,5_70 - p0 + p5 >= 0
 R100: 388 x0,5_70 - p0 + p5 <= 458
 R101: - 103 x0,5_103 - p0 + p5 >= 0
 R102: 388 x0,5_103 - p0 + p5 <= 491
 R103: p0 - p6 <= -1
 R104: - 12 x0,6_12 - p0 + p6 >= 0
 R105: 388 x0,6_12 - p0 + p6 <= 400
 R106: - 47 x0,6_47 - p0 + p6 >= 0
 R107: 388 x0,6_47 - p0 + p6 <= 435
 R108: - 48 x0,6_48 - p0 + p6 >= 0
 R109: 388 x0,6_48 - p0 + p6 <= 436
 R110: - 52 x0,6_52 - p0 + p6 >= 0
 R111: 388 x0,6_52 - p0 + p6 <= 440
 R112: - 56 x0,6_56 - p0 + p6 >= 0
 R113: 388 x0,6_56 - p0 + p6 <= 444
 R114: - 70 x0,6_70 - p0 + p6 >= 0
 R115: 388 x0,6_70 - p0 + p6 <= 458
 R116: - 103 x0,6_103 - p0 + p6 >= 0
 R117: 388 x0,6_103 - p0 + p6 <= 491
 R118: p1 - p2 <= -1
 R119: - 12 x1,2_12 - p1 + p2 >= 0
 R120: 388 x1,2_12 - p1 + p2 <= 400
 R121: - 47 x1,2_47 - p1 + p2 >= 0
 R122: 388 x1,2_47 - p1 + p2 <= 435
 R123: - 48 x1,2_48 - p1 + p2 >= 0
 R124: 388 x1,2_48 - p1 + p2 <= 436
 R125: - 52 x1,2_52 - p1 + p2 >= 0
 R126: 388 x1,2_52 - p1 + p2 <= 440
 R127: - 56 x1,2_56 - p1 + p2 >= 0
 R128: 388 x1,2_56 - p1 + p2 <= 444
 R129: - 70 x1,2_70 - p1 + p2 >= 0
 R130: 388 x1,2_70 - p1 + p2 <= 458
 R131: - 103 x1,2_103 - p1 + p2 >= 0
 R132: 388 x1,2_103 - p1 + p2 <= 491
 R133: p1 - p3 <= -1
 R134: - 12 x1,3_12 - p1 + p3 >= 0
 R135: 388 x1,3_12 - p1 + p3 <= 400
 R136: - 47 x1,3_47 - p1 + p3 >= 0
 R137: 388 x1,3_47 - p1 + p3 <= 435
 R138: - 48 x1,3_48 - p1 + p3 >= 0
 R139: 388 x1,3_48 - p1 + p3 <= 436
 R140: - 52 x1,3_52 - p1 + p3 >= 0
 R141: 388 x1,3_52 - p1 + p3 <= 440
 R142: - 56 x1,3_56 - p1 + p3 >= 0
 R143: 388 x1,3_56 - p1 + p3 <= 444
 R144: - 70 x1,3_70 - p1 + p3 >= 0
 R145: 388 x1,3_70 - p1 + p3 <= 458
 R146: - 103 x1,3_103 - p1 + p3 >= 0
 R147: 388 x1,3_103 - p1 + p3 <= 491
 R148: p1 - p4 <= -1
 R149: - 12 x1,4_12 - p1 + p4 >= 0
 R150: 388 x1,4_12 - p1 + p4 <= 400
 R151: - 47 x1,4_47 - p1 + p4 >= 0
 R152: 388 x1,4_47 - p1 + p4 <= 435
 R153: - 48 x1,4_48 - p1 + p4 >= 0
 R154: 388 x1,4_48 - p1 + p4 <= 436
 R155: - 52 x1,4_52 - p1 + p4 >= 0
 R156: 388 x1,4_52 - p1 + p4 <= 440
 R157: - 56 x1,4_56 - p1 + p4 >= 0
 R158: 388 x1,4_56 - p1 + p4 <= 444
 R159: - 70 x1,4_70 - p1 + p4 >= 0
 R160: 388 x1,4_70 - p1 + p4 <= 458
 R161: - 103 x1,4_103 - p1 + p4 >= 0
 R162: 388 x1,4_103 - p1 + p4 <= 491
 R163: p1 - p5 <= -1
 R164: - 12 x1,5_12 - p1 + p5 >= 0
 R165: 388 x1,5_12 - p1 + p5 <= 400
 R166: - 47 x1,5_47 - p1 + p5 >= 0
 R167: 388 x1,5_47 - p1 + p5 <= 435
 R168: - 48 x1,5_48 - p1 + p5 >= 0
 R169: 388 x1,5_48 - p1 + p5 <= 436
 R170: - 52 x1,5_52 - p1 + p5 >= 0
 R171: 388 x1,5_52 - p1 + p5 <= 440
 R172: - 56 x1,5_56 - p1 + p5 >= 0
 R173: 388 x1,5_56 - p1 + p5 <= 444
 R174: - 70 x1,5_70 - p1 + p5 >= 0
 R175: 388 x1,5_70 - p1 + p5 <= 458
 R176: - 103 x1,5_103 - p1 + p5 >= 0
 R177: 388 x1,5_103 - p1 + p5 <= 491
 R178: p1 - p6 <= -1
 R179: - 12 x1,6_12 - p1 + p6 >= 0
 R180: 388 x1,6_12 - p1 + p6 <= 400
 R181: - 47 x1,6_47 - p1 + p6 >= 0
 R182: 388 x1,6_47 - p1 + p6 <= 435
 R183: - 48 x1,6_48 - p1 + p6 >= 0
 R184: 388 x1,6_48 - p1 + p6 <= 436
 R185: - 52 x1,6_52 - p1 + p6 >= 0
 R186: 388 x1,6_52 - p1 + p6 <= 440
 R187: - 56 x1,6_56 - p1 + p6 >= 0
 R188: 388 x1,6_56 - p1 + p6 <= 444
 R189: - 70 x1,6_70 - p1 + p6 >= 0
 R190: 388 x1,6_70 - p1 + p6 <= 458
 R191: - 103 x1,6_103 - p1 + p6 >= 0
 R192: 388 x1,6_103 - p1 + p6 <= 491
 R193: p2 - p3 <= -1
 R194: - 12 x2,3_12 - p2 + p3 >= 0
 R195: 388 x2,3_12 - p2 + p3 <= 400
 R196: - 47 x2,3_47 - p2 + p3 >= 0
 R197: 388 x2,3_47 - p2 + p3 <= 435
 R198: - 48 x2,3_48 - p2 + p3 >= 0
 R199: 388 x2,3_48 - p2 + p3 <= 436
 R200: - 52 x2,3_52 - p2 + p3 >= 0
 R201: 388 x2,3_52 - p2 + p3 <= 440
 R202: - 56 x2,3_56 - p2 + p3 >= 0
 R203: 388 x2,3_56 - p2 + p3 <= 444
 R204: - 70 x2,3_70 - p2 + p3 >= 0
 R205: 388 x2,3_70 - p2 + p3 <= 458
 R206: - 103 x2,3_103 - p2 + p3 >= 0
 R207: 388 x2,3_103 - p2 + p3 <= 491
 R208: p2 - p4 <= -1
 R209: - 12 x2,4_12 - p2 + p4 >= 0
 R210: 388 x2,4_12 - p2 + p4 <= 400
 R211: - 47 x2,4_47 - p2 + p4 >= 0
 R212: 388 x2,4_47 - p2 + p4 <= 435
 R213: - 48 x2,4_48 - p2 + p4 >= 0
 R214: 388 x2,4_48 - p2 + p4 <= 436
 R215: - 52 x2,4_52 - p2 + p4 >= 0
 R216: 388 x2,4_52 - p2 + p4 <= 440
 R217: - 56 x2,4_56 - p2 + p4 >= 0
 R218: 388 x2,4_56 - p2 + p4 <= 444
 R219: - 70 x2,4_70 - p2 + p4 >= 0
 R220: 388 x2,4_70 - p2 + p4 <= 458
 R221: - 103 x2,4_103 - p2 + p4 >= 0
 R222: 388 x2,4_103 - p2 + p4 <= 491
 R223: p2 - p5 <= -1
 R224: - 12 x2,5_12 - p2 + p5 >= 0
 R225: 388 x2,5_12 - p2 + p5 <= 400
 R226: - 47 x2,5_47 - p2 + p5 >= 0
 R227: 388 x2,5_47 - p2 + p5 <= 435
 R228: - 48 x2,5_48 - p2 + p5 >= 0
 R229: 388 x2,5_48 - p2 + p5 <= 436
 R230: - 52 x2,5_52 - p2 + p5 >= 0
 R231: 388 x2,5_52 - p2 + p5 <= 440
 R232: - 56 x2,5_56 - p2 + p5 >= 0
 R233: 388 x2,5_56 - p2 + p5 <= 444
 R234: - 70 x2,5_70 - p2 + p5 >= 0
 R235: 388 x2,5_70 - p2 + p5 <= 458
 R236: - 103 x2,5_103 - p2 + p5 >= 0
 R237: 388 x2,5_103 - p2 + p5 <= 491
 R238: p2 - p6 <= -1
 R239: - 12 x2,6_12 - p2 + p6 >= 0
 R240: 388 x2,6_12 - p2 + p6 <= 400
 R241: - 47 x2,6_47 - p2 + p6 >= 0
 R242: 388 x2,6_47 - p2 + p6 <= 435
 R243: - 48 x2,6_48 - p2 + p6 >= 0
 R244: 388 x2,6_48 - p2 + p6 <= 436
 R245: - 52 x2,6_52 - p2 + p6 >= 0
 R246: 388 x2,6_52 - p2 + p6 <= 440
 R247: - 56 x2,6_56 - p2 + p6 >= 0
 R248: 388 x2,6_56 - p2 + p6 <= 444
 R249: - 70 x2,6_70 - p2 + p6 >= 0
 R250: 388 x2,6_70 - p2 + p6 <= 458
 R251: - 103 x2,6_103 - p2 + p6 >= 0
 R252: 388 x2,6_103 - p2 + p6 <= 491
 R253: p3 - p4 <= -1
 R254: - 12 x3,4_12 - p3 + p4 >= 0
 R255: 388 x3,4_12 - p3 + p4 <= 400
 R256: - 47 x3,4_47 - p3 + p4 >= 0
 R257: 388 x3,4_47 - p3 + p4 <= 435
 R258: - 48 x3,4_48 - p3 + p4 >= 0
 R259: 388 x3,4_48 - p3 + p4 <= 436
 R260: - 52 x3,4_52 - p3 + p4 >= 0
 R261: 388 x3,4_52 - p3 + p4 <= 440
 R262: - 56 x3,4_56 - p3 + p4 >= 0
 R263: 388 x3,4_56 - p3 + p4 <= 444
 R264: - 70 x3,4_70 - p3 + p4 >= 0
 R265: 388 x3,4_70 - p3 + p4 <= 458
 R266: - 103 x3,4_103 - p3 + p4 >= 0
 R267: 388 x3,4_103 - p3 + p4 <= 491
 R268: p3 - p5 <= -1
 R269: - 12 x3,5_12 - p3 + p5 >= 0
 R270: 388 x3,5_12 - p3 + p5 <= 400
 R271: - 47 x3,5_47 - p3 + p5 >= 0
 R272: 388 x3,5_47 - p3 + p5 <= 435
 R273: - 48 x3,5_48 - p3 + p5 >= 0
 R274: 388 x3,5_48 - p3 + p5 <= 436
 R275: - 52 x3,5_52 - p3 + p5 >= 0
 R276: 388 x3,5_52 - p3 + p5 <= 440
 R277: - 56 x3,5_56 - p3 + p5 >= 0
 R278: 388 x3,5_56 - p3 + p5 <= 444
 R279: - 70 x3,5_70 - p3 + p5 >= 0
 R280: 388 x3,5_70 - p3 + p5 <= 458
 R281: - 103 x3,5_103 - p3 + p5 >= 0
 R282: 388 x3,5_103 - p3 + p5 <= 491
 R283: p3 - p6 <= -1
 R284: - 12 x3,6_12 - p3 + p6 >= 0
 R285: 388 x3,6_12 - p3 + p6 <= 400
 R286: - 47 x3,6_47 - p3 + p6 >= 0
 R287: 388 x3,6_47 - p3 + p6 <= 435
 R288: - 48 x3,6_48 - p3 + p6 >= 0
 R289: 388 x3,6_48 - p3 + p6 <= 436
 R290: - 52 x3,6_52 - p3 + p6 >= 0
 R291: 388 x3,6_52 - p3 + p6 <= 440
 R292: - 56 x3,6_56 - p3 + p6 >= 0
 R293: 388 x3,6_56 - p3 + p6 <= 444
 R294: - 70 x3,6_70 - p3 + p6 >= 0
 R295: 388 x3,6_70 - p3 + p6 <= 458
 R296: - 103 x3,6_103 - p3 + p6 >= 0
 R297: 388 x3,6_103 - p3 + p6 <= 491
 R298: p4 - p5 <= -1
 R299: - 12 x4,5_12 - p4 + p5 >= 0
 R300: 388 x4,5_12 - p4 + p5 <= 400
 R301: - 47 x4,5_47 - p4 + p5 >= 0
 R302: 388 x4,5_47 - p4 + p5 <= 435
 R303: - 48 x4,5_48 - p4 + p5 >= 0
 R304: 388 x4,5_48 - p4 + p5 <= 436
 R305: - 52 x4,5_52 - p4 + p5 >= 0
 R306: 388 x4,5_52 - p4 + p5 <= 440
 R307: - 56 x4,5_56 - p4 + p5 >= 0
 R308: 388 x4,5_56 - p4 + p5 <= 444
 R309: - 70 x4,5_70 - p4 + p5 >= 0
 R310: 388 x4,5_70 - p4 + p5 <= 458
 R311: - 103 x4,5_103 - p4 + p5 >= 0
 R312: 388 x4,5_103 - p4 + p5 <= 491
 R313: p4 - p6 <= -1
 R314: - 12 x4,6_12 - p4 + p6 >= 0
 R315: 388 x4,6_12 - p4 + p6 <= 400
 R316: - 47 x4,6_47 - p4 + p6 >= 0
 R317: 388 x4,6_47 - p4 + p6 <= 435
 R318: - 48 x4,6_48 - p4 + p6 >= 0
 R319: 388 x4,6_48 - p4 + p6 <= 436
 R320: - 52 x4,6_52 - p4 + p6 >= 0
 R321: 388 x4,6_52 - p4 + p6 <= 440
 R322: - 56 x4,6_56 - p4 + p6 >= 0
 R323: 388 x4,6_56 - p4 + p6 <= 444
 R324: - 70 x4,6_70 - p4 + p6 >= 0
 R325: 388 x4,6_70 - p4 + p6 <= 458
 R326: - 103 x4,6_103 - p4 + p6 >= 0
 R327: 388 x4,6_103 - p4 + p6 <= 491
 R328: p5 - p6 <= -1
 R329: - 12 x5,6_12 - p5 + p6 >= 0
 R330: 388 x5,6_12 - p5 + p6 <= 400
 R331: - 47 x5,6_47 - p5 + p6 >= 0
 R332: 388 x5,6_47 - p5 + p6 <= 435
 R333: - 48 x5,6_48 - p5 + p6 >= 0
 R334: 388 x5,6_48 - p5 + p6 <= 436
 R335: - 52 x5,6_52 - p5 + p6 >= 0
 R336: 388 x5,6_52 - p5 + p6 <= 440
 R337: - 56 x5,6_56 - p5 + p6 >= 0
 R338: 388 x5,6_56 - p5 + p6 <= 444
 R339: - 70 x5,6_70 - p5 + p6 >= 0
 R340: 388 x5,6_70 - p5 + p6 <= 458
 R341: - 103 x5,6_103 - p5 + p6 >= 0
 R342: 388 x5,6_103 - p5 + p6 <= 491
Bounds
Binaries
 x0,1_12 x0,1_47 x0,1_48 x0,1_52 x0,1_56 x0,1_70 x0,1_103 x0,2_12 x0,2_47
 x0,2_48 x0,2_52 x0,2_56 x0,2_70 x0,2_103 x0,3_12 x0,3_47 x0,3_48 x0,3_52
 x0,3_56 x0,3_70 x0,3_103 x0,4_12 x0,4_47 x0,4_48 x0,4_52 x0,4_56 x0,4_70
 x0,4_103 x0,5_12 x0,5_47 x0,5_48 x0,5_52 x0,5_56 x0,5_70 x0,5_103 x0,6_12
 x0,6_47 x0,6_48 x0,6_52 x0,6_56 x0,6_70 x0,6_103 x1,2_12 x1,2_47 x1,2_48
 x1,2_52 x1,2_56 x1,2_70 x1,2_103 x1,3_12 x1,3_47 x1,3_48 x1,3_52 x1,3_56
 x1,3_70 x1,3_103 x1,4_12 x1,4_47 x1,4_48 x1,4_52 x1,4_56 x1,4_70 x1,4_103
 x1,5_12 x1,5_47 x1,5_48 x1,5_52 x1,5_56 x1,5_70 x1,5_103 x1,6_12 x1,6_47
 x1,6_48 x1,6_52 x1,6_56 x1,6_70 x1,6_103 x2,3_12 x2,3_47 x2,3_48 x2,3_52
 x2,3_56 x2,3_70 x2,3_103 x2,4_12 x2,4_47 x2,4_48 x2,4_52 x2,4_56 x2,4_70
 x2,4_103 x2,5_12 x2,5_47 x2,5_48 x2,5_52 x2,5_56 x2,5_70 x2,5_103 x2,6_12
 x2,6_47 x2,6_48 x2,6_52 x2,6_56 x2,6_70 x2,6_103 x3,4_12 x3,4_47 x3,4_48
 x3,4_52 x3,4_56 x3,4_70 x3,4_103 x3,5_12 x3,5_47 x3,5_48 x3,5_52 x3,5_56
 x3,5_70 x3,5_103 x3,6_12 x3,6_47 x3,6_48 x3,6_52 x3,6_56 x3,6_70 x3,6_103
 x4,5_12 x4,5_47 x4,5_48 x4,5_52 x4,5_56 x4,5_70 x4,5_103 x4,6_12 x4,6_47
 x4,6_48 x4,6_52 x4,6_56 x4,6_70 x4,6_103 x5,6_12 x5,6_47 x5,6_48 x5,6_52
 x5,6_56 x5,6_70 x5,6_103
Generals
 p0 p1 p2 p3 p4 p5 p6
End
