logs/drand/feas/drand-07-110-0.sol
# Objective value = 216
x0,1_12 0
x0,1_47 0
x0,1_48 0
x0,1_52 0
x0,1_56 0
x0,1_70 0
x0,1_103 0
x0,2_12 0
x0,2_47 0
x0,2_48 0
x0,2_52 0
x0,2_56 0
x0,2_70 0
x0,2_103 0
x0,3_12 1
x0,3_47 0
x0,3_48 0
x0,3_52 0
x0,3_56 0
x0,3_70 0
x0,3_103 0
x0,4_12 0
x0,4_47 0
x0,4_48 0
x0,4_52 0
x0,4_56 0
x0,4_70 0
x0,4_103 0
x0,5_12 0
x0,5_47 0
x0,5_48 0
x0,5_52 0
x0,5_56 1
x0,5_70 0
x0,5_103 0
x0,6_12 0
x0,6_47 0
x0,6_48 0
x0,6_52 0
x0,6_56 0
x0,6_70 0
x0,6_103 1
x1,2_12 0
x1,2_47 0
x1,2_48 0
x1,2_52 0
x1,2_56 0
x1,2_70 0
x1,2_103 0
x1,3_12 0
x1,3_47 0
x1,3_48 0
x1,3_52 0
x1,3_56 0
x1,3_70 0
x1,3_103 0
x1,4_12 0
x1,4_47 0
x1,4_48 0
x1,4_52 0
x1,4_56 0
x1,4_70 0
x1,4_103 0
x1,5_12 0
x1,5_47 0
x1,5_48 0
x1,5_52 1
x1,5_56 0
x1,5_70 0
x1,5_103 0
x1,6_12 0
x1,6_47 0
x1,6_48 0
x1,6_52 0
x1,6_56 0
x1,6_70 0
x1,6_103 0
x2,3_12 0
x2,3_47 0
x2,3_48 0
x2,3_52 0
x2,3_56 0
x2,3_70 0
x2,3_103 0
x2,4_12 0
x2,4_47 0
x2,4_48 0
x2,4_52 0
x2,4_56 0
x2,4_70 0
x2,4_103 0
x2,5_12 0
x2,5_47 0
x2,5_48 1
x2,5_52 0
x2,5_56 0
x2,5_70 0
x2,5_103 0
x2,6_12 0
x2,6_47 0
x2,6_48 0
x2,6_52 0
x2,6_56 0
x2,6_70 0
x2,6_103 0
x3,4_12 0
x3,4_47 0
x3,4_48 0
x3,4_52 0
x3,4_56 0
x3,4_70 0
x3,4_103 0
x3,5_12 0
x3,5_47 0
x3,5_48 0
x3,5_52 0
x3,5_56 0
x3,5_70 0
x3,5_103 0
x3,6_12 0
x3,6_47 0
x3,6_48 0
x3,6_52 0
x3,6_56 0
x3,6_70 0
x3,6_103 0
x4,5_12 0
x4,5_47 0
x4,5_48 0
x4,5_52 0
x4,5_56 0
x4,5_70 0
x4,5_103 0
x4,6_12 0
x4,6_47 0
x4,6_48 0
x4,6_52 0
x4,6_56 0
x4,6_70 1
x4,6_103 0
x5,6_12 0
x5,6_47 1
x5,6_48 0
x5,6_52 0
x5,6_56 0
x5,6_70 0
x5,6_103 0
p0 0
p1 4
p2 8
p3 12
p4 33
p5 56
p6 103
